0000000000000000
0000000000000000
0000000000000000
0000000000000000
0000111100000000
0000111111000000
0000001111000000
0000000111000000
0000000111000000
0000000111000000
0000000111000000
0000000111000000
0000000111000000
0000000111000000
0000000111000000
0000000000000000
